\ LP format - for model browsing. Use MPS format to capture full model detail.
Minimize
  xk[1,1] + 1.414213562373095 x[1,2,1] + 1.414213562373095 x[1,3,1]
   + 5 x[1,4,1] + 1.414213562373095 x[2,1,1] + 2 x[2,3,1]
   + 6.082762530298219 x[2,4,1] + 1.414213562373095 x[3,1,1] + 2 x[3,2,1]
   + 6.082762530298219 x[3,4,1] + 5 x[4,1,1] + 6.082762530298219 x[4,2,1]
   + 6.082762530298219 x[4,3,1] + xk[2,1] + 1.414213562373095 x[1,2,2]
   + 1.414213562373095 x[1,3,2] + 5 x[1,4,2] + 1.414213562373095 x[2,1,2]
   + 2 x[2,3,2] + 6.082762530298219 x[2,4,2] + 1.414213562373095 x[3,1,2]
   + 2 x[3,2,2] + 6.082762530298219 x[3,4,2] + 5 x[4,1,2]
   + 6.082762530298219 x[4,2,2] + 6.082762530298219 x[4,3,2] + xk[3,1]
   + 1.414213562373095 x[1,2,3] + 1.414213562373095 x[1,3,3] + 5 x[1,4,3]
   + 1.414213562373095 x[2,1,3] + 2 x[2,3,3] + 6.082762530298219 x[2,4,3]
   + 1.414213562373095 x[3,1,3] + 2 x[3,2,3] + 6.082762530298219 x[3,4,3]
   + 5 x[4,1,3] + 6.082762530298219 x[4,2,3] + 6.082762530298219 x[4,3,3]
   + xk[4,1] + 1.414213562373095 x[1,2,4] + 1.414213562373095 x[1,3,4]
   + 5 x[1,4,4] + 1.414213562373095 x[2,1,4] + 2 x[2,3,4]
   + 6.082762530298219 x[2,4,4] + 1.414213562373095 x[3,1,4] + 2 x[3,2,4]
   + 6.082762530298219 x[3,4,4] + 5 x[4,1,4] + 6.082762530298219 x[4,2,4]
   + 6.082762530298219 x[4,3,4] + xk[5,1] + 1.414213562373095 x[1,2,5]
   + 1.414213562373095 x[1,3,5] + 5 x[1,4,5] + 1.414213562373095 x[2,1,5]
   + 2 x[2,3,5] + 6.082762530298219 x[2,4,5] + 1.414213562373095 x[3,1,5]
   + 2 x[3,2,5] + 6.082762530298219 x[3,4,5] + 5 x[4,1,5]
   + 6.082762530298219 x[4,2,5] + 6.082762530298219 x[4,3,5]
Subject To
 node_flow_1i1k: x[1,2,1] + x[1,3,1] + x[1,4,1] - x[2,1,1] - x[3,1,1]
   - x[4,1,1] = 0
 node_flow_1i2k: x[1,2,1] + x[1,3,1] + x[1,4,1] - x[2,1,1] - x[3,1,1]
   - x[4,1,1] + x[1,2,2] + x[1,3,2] + x[1,4,2] - x[2,1,2] - x[3,1,2]
   - x[4,1,2] = 0
 node_flow_1i3k: x[1,2,1] + x[1,3,1] + x[1,4,1] - x[2,1,1] - x[3,1,1]
   - x[4,1,1] + x[1,2,2] + x[1,3,2] + x[1,4,2] - x[2,1,2] - x[3,1,2]
   - x[4,1,2] + x[1,2,3] + x[1,3,3] + x[1,4,3] - x[2,1,3] - x[3,1,3]
   - x[4,1,3] = 0
 node_flow_1i4k: x[1,2,1] + x[1,3,1] + x[1,4,1] - x[2,1,1] - x[3,1,1]
   - x[4,1,1] + x[1,2,2] + x[1,3,2] + x[1,4,2] - x[2,1,2] - x[3,1,2]
   - x[4,1,2] + x[1,2,3] + x[1,3,3] + x[1,4,3] - x[2,1,3] - x[3,1,3]
   - x[4,1,3] + x[1,2,4] + x[1,3,4] + x[1,4,4] - x[2,1,4] - x[3,1,4]
   - x[4,1,4] = 0
 node_flow_1i5k: x[1,2,1] + x[1,3,1] + x[1,4,1] - x[2,1,1] - x[3,1,1]
   - x[4,1,1] + x[1,2,2] + x[1,3,2] + x[1,4,2] - x[2,1,2] - x[3,1,2]
   - x[4,1,2] + x[1,2,3] + x[1,3,3] + x[1,4,3] - x[2,1,3] - x[3,1,3]
   - x[4,1,3] + x[1,2,4] + x[1,3,4] + x[1,4,4] - x[2,1,4] - x[3,1,4]
   - x[4,1,4] + x[1,2,5] + x[1,3,5] + x[1,4,5] - x[2,1,5] - x[3,1,5]
   - x[4,1,5] = 0
 node_flow_2i1k: - x[1,2,1] + x[2,1,1] + x[2,3,1] + x[2,4,1] - x[3,2,1]
   - x[4,2,1] = 0
 node_flow_2i2k: - x[1,2,1] + x[2,1,1] + x[2,3,1] + x[2,4,1] - x[3,2,1]
   - x[4,2,1] - x[1,2,2] + x[2,1,2] + x[2,3,2] + x[2,4,2] - x[3,2,2]
   - x[4,2,2] = 0
 node_flow_2i3k: - x[1,2,1] + x[2,1,1] + x[2,3,1] + x[2,4,1] - x[3,2,1]
   - x[4,2,1] - x[1,2,2] + x[2,1,2] + x[2,3,2] + x[2,4,2] - x[3,2,2]
   - x[4,2,2] - x[1,2,3] + x[2,1,3] + x[2,3,3] + x[2,4,3] - x[3,2,3]
   - x[4,2,3] = 0
 node_flow_2i4k: - x[1,2,1] + x[2,1,1] + x[2,3,1] + x[2,4,1] - x[3,2,1]
   - x[4,2,1] - x[1,2,2] + x[2,1,2] + x[2,3,2] + x[2,4,2] - x[3,2,2]
   - x[4,2,2] - x[1,2,3] + x[2,1,3] + x[2,3,3] + x[2,4,3] - x[3,2,3]
   - x[4,2,3] - x[1,2,4] + x[2,1,4] + x[2,3,4] + x[2,4,4] - x[3,2,4]
   - x[4,2,4] = 0
 node_flow_2i5k: - x[1,2,1] + x[2,1,1] + x[2,3,1] + x[2,4,1] - x[3,2,1]
   - x[4,2,1] - x[1,2,2] + x[2,1,2] + x[2,3,2] + x[2,4,2] - x[3,2,2]
   - x[4,2,2] - x[1,2,3] + x[2,1,3] + x[2,3,3] + x[2,4,3] - x[3,2,3]
   - x[4,2,3] - x[1,2,4] + x[2,1,4] + x[2,3,4] + x[2,4,4] - x[3,2,4]
   - x[4,2,4] - x[1,2,5] + x[2,1,5] + x[2,3,5] + x[2,4,5] - x[3,2,5]
   - x[4,2,5] = 0
 node_out_2: x[2,1,1] + x[2,3,1] + x[2,4,1] + x[2,1,2] + x[2,3,2]
   + x[2,4,2] + x[2,1,3] + x[2,3,3] + x[2,4,3] + x[2,1,4] + x[2,3,4]
   + x[2,4,4] + x[2,1,5] + x[2,3,5] + x[2,4,5] = 1
 node_flow_3i1k: - x[1,3,1] - x[2,3,1] + x[3,1,1] + x[3,2,1] + x[3,4,1]
   - x[4,3,1] = 0
 node_flow_3i2k: - x[1,3,1] - x[2,3,1] + x[3,1,1] + x[3,2,1] + x[3,4,1]
   - x[4,3,1] - x[1,3,2] - x[2,3,2] + x[3,1,2] + x[3,2,2] + x[3,4,2]
   - x[4,3,2] = 0
 node_flow_3i3k: - x[1,3,1] - x[2,3,1] + x[3,1,1] + x[3,2,1] + x[3,4,1]
   - x[4,3,1] - x[1,3,2] - x[2,3,2] + x[3,1,2] + x[3,2,2] + x[3,4,2]
   - x[4,3,2] - x[1,3,3] - x[2,3,3] + x[3,1,3] + x[3,2,3] + x[3,4,3]
   - x[4,3,3] = 0
 node_flow_3i4k: - x[1,3,1] - x[2,3,1] + x[3,1,1] + x[3,2,1] + x[3,4,1]
   - x[4,3,1] - x[1,3,2] - x[2,3,2] + x[3,1,2] + x[3,2,2] + x[3,4,2]
   - x[4,3,2] - x[1,3,3] - x[2,3,3] + x[3,1,3] + x[3,2,3] + x[3,4,3]
   - x[4,3,3] - x[1,3,4] - x[2,3,4] + x[3,1,4] + x[3,2,4] + x[3,4,4]
   - x[4,3,4] = 0
 node_flow_3i5k: - x[1,3,1] - x[2,3,1] + x[3,1,1] + x[3,2,1] + x[3,4,1]
   - x[4,3,1] - x[1,3,2] - x[2,3,2] + x[3,1,2] + x[3,2,2] + x[3,4,2]
   - x[4,3,2] - x[1,3,3] - x[2,3,3] + x[3,1,3] + x[3,2,3] + x[3,4,3]
   - x[4,3,3] - x[1,3,4] - x[2,3,4] + x[3,1,4] + x[3,2,4] + x[3,4,4]
   - x[4,3,4] - x[1,3,5] - x[2,3,5] + x[3,1,5] + x[3,2,5] + x[3,4,5]
   - x[4,3,5] = 0
 node_out_3: x[3,1,1] + x[3,2,1] + x[3,4,1] + x[3,1,2] + x[3,2,2]
   + x[3,4,2] + x[3,1,3] + x[3,2,3] + x[3,4,3] + x[3,1,4] + x[3,2,4]
   + x[3,4,4] + x[3,1,5] + x[3,2,5] + x[3,4,5] = 1
 node_flow_4i1k: - x[1,4,1] - x[2,4,1] - x[3,4,1] + x[4,1,1] + x[4,2,1]
   + x[4,3,1] = 0
 node_flow_4i2k: - x[1,4,1] - x[2,4,1] - x[3,4,1] + x[4,1,1] + x[4,2,1]
   + x[4,3,1] - x[1,4,2] - x[2,4,2] - x[3,4,2] + x[4,1,2] + x[4,2,2]
   + x[4,3,2] = 0
 node_flow_4i3k: - x[1,4,1] - x[2,4,1] - x[3,4,1] + x[4,1,1] + x[4,2,1]
   + x[4,3,1] - x[1,4,2] - x[2,4,2] - x[3,4,2] + x[4,1,2] + x[4,2,2]
   + x[4,3,2] - x[1,4,3] - x[2,4,3] - x[3,4,3] + x[4,1,3] + x[4,2,3]
   + x[4,3,3] = 0
 node_flow_4i4k: - x[1,4,1] - x[2,4,1] - x[3,4,1] + x[4,1,1] + x[4,2,1]
   + x[4,3,1] - x[1,4,2] - x[2,4,2] - x[3,4,2] + x[4,1,2] + x[4,2,2]
   + x[4,3,2] - x[1,4,3] - x[2,4,3] - x[3,4,3] + x[4,1,3] + x[4,2,3]
   + x[4,3,3] - x[1,4,4] - x[2,4,4] - x[3,4,4] + x[4,1,4] + x[4,2,4]
   + x[4,3,4] = 0
 node_flow_4i5k: - x[1,4,1] - x[2,4,1] - x[3,4,1] + x[4,1,1] + x[4,2,1]
   + x[4,3,1] - x[1,4,2] - x[2,4,2] - x[3,4,2] + x[4,1,2] + x[4,2,2]
   + x[4,3,2] - x[1,4,3] - x[2,4,3] - x[3,4,3] + x[4,1,3] + x[4,2,3]
   + x[4,3,3] - x[1,4,4] - x[2,4,4] - x[3,4,4] + x[4,1,4] + x[4,2,4]
   + x[4,3,4] - x[1,4,5] - x[2,4,5] - x[3,4,5] + x[4,1,5] + x[4,2,5]
   + x[4,3,5] = 0
 node_out_4: x[4,1,1] + x[4,2,1] + x[4,3,1] + x[4,1,2] + x[4,2,2]
   + x[4,3,2] + x[4,1,3] + x[4,2,3] + x[4,3,3] + x[4,1,4] + x[4,2,4]
   + x[4,3,4] + x[4,1,5] + x[4,2,5] + x[4,3,5] = 1
 drone_payload_1: x[1,2,1] + x[1,3,1] + x[1,4,1] + x[2,1,1] + x[2,3,1]
   + x[2,4,1] + x[3,1,1] + x[3,2,1] + x[3,4,1] + x[4,1,1] + x[4,2,1]
   + x[4,3,1] <= 5
 drone_range_1: 1.414213562373095 x[1,2,1] + 1.414213562373095 x[1,3,1]
   + 5 x[1,4,1] + 1.414213562373095 x[2,1,1] + 2 x[2,3,1]
   + 6.082762530298219 x[2,4,1] + 1.414213562373095 x[3,1,1] + 2 x[3,2,1]
   + 6.082762530298219 x[3,4,1] + 5 x[4,1,1] + 6.082762530298219 x[4,2,1]
   + 6.082762530298219 x[4,3,1] <= 11
 drone_payload_2: x[1,2,2] + x[1,3,2] + x[1,4,2] + x[2,1,2] + x[2,3,2]
   + x[2,4,2] + x[3,1,2] + x[3,2,2] + x[3,4,2] + x[4,1,2] + x[4,2,2]
   + x[4,3,2] <= 5
 drone_range_2: 1.414213562373095 x[1,2,2] + 1.414213562373095 x[1,3,2]
   + 5 x[1,4,2] + 1.414213562373095 x[2,1,2] + 2 x[2,3,2]
   + 6.082762530298219 x[2,4,2] + 1.414213562373095 x[3,1,2] + 2 x[3,2,2]
   + 6.082762530298219 x[3,4,2] + 5 x[4,1,2] + 6.082762530298219 x[4,2,2]
   + 6.082762530298219 x[4,3,2] <= 11
 drone_payload_3: x[1,2,3] + x[1,3,3] + x[1,4,3] + x[2,1,3] + x[2,3,3]
   + x[2,4,3] + x[3,1,3] + x[3,2,3] + x[3,4,3] + x[4,1,3] + x[4,2,3]
   + x[4,3,3] <= 5
 drone_range_3: 1.414213562373095 x[1,2,3] + 1.414213562373095 x[1,3,3]
   + 5 x[1,4,3] + 1.414213562373095 x[2,1,3] + 2 x[2,3,3]
   + 6.082762530298219 x[2,4,3] + 1.414213562373095 x[3,1,3] + 2 x[3,2,3]
   + 6.082762530298219 x[3,4,3] + 5 x[4,1,3] + 6.082762530298219 x[4,2,3]
   + 6.082762530298219 x[4,3,3] <= 11
 drone_payload_4: x[1,2,4] + x[1,3,4] + x[1,4,4] + x[2,1,4] + x[2,3,4]
   + x[2,4,4] + x[3,1,4] + x[3,2,4] + x[3,4,4] + x[4,1,4] + x[4,2,4]
   + x[4,3,4] <= 5
 drone_range_4: 1.414213562373095 x[1,2,4] + 1.414213562373095 x[1,3,4]
   + 5 x[1,4,4] + 1.414213562373095 x[2,1,4] + 2 x[2,3,4]
   + 6.082762530298219 x[2,4,4] + 1.414213562373095 x[3,1,4] + 2 x[3,2,4]
   + 6.082762530298219 x[3,4,4] + 5 x[4,1,4] + 6.082762530298219 x[4,2,4]
   + 6.082762530298219 x[4,3,4] <= 11
 drone_payload_5: x[1,2,5] + x[1,3,5] + x[1,4,5] + x[2,1,5] + x[2,3,5]
   + x[2,4,5] + x[3,1,5] + x[3,2,5] + x[3,4,5] + x[4,1,5] + x[4,2,5]
   + x[4,3,5] <= 5
 drone_range_5: 1.414213562373095 x[1,2,5] + 1.414213562373095 x[1,3,5]
   + 5 x[1,4,5] + 1.414213562373095 x[2,1,5] + 2 x[2,3,5]
   + 6.082762530298219 x[2,4,5] + 1.414213562373095 x[3,1,5] + 2 x[3,2,5]
   + 6.082762530298219 x[3,4,5] + 5 x[4,1,5] + 6.082762530298219 x[4,2,5]
   + 6.082762530298219 x[4,3,5] <= 11
 drone1out_base_1: - xk[1,1] + x[1,2,1] + x[1,3,1] + x[1,4,1] = 0
 drone1in_base_1: - xk[1,1] + x[2,1,1] + x[3,1,1] + x[4,1,1] = 0
 drone1only_in_one_base_: xk[1,1] <= 1
 drone2out_base_1: - xk[2,1] + x[1,2,2] + x[1,3,2] + x[1,4,2] = 0
 drone2in_base_1: - xk[2,1] + x[2,1,2] + x[3,1,2] + x[4,1,2] = 0
 drone2only_in_one_base_: xk[2,1] <= 1
 drone3out_base_1: - xk[3,1] + x[1,2,3] + x[1,3,3] + x[1,4,3] = 0
 drone3in_base_1: - xk[3,1] + x[2,1,3] + x[3,1,3] + x[4,1,3] = 0
 drone3only_in_one_base_: xk[3,1] <= 1
 drone4out_base_1: - xk[4,1] + x[1,2,4] + x[1,3,4] + x[1,4,4] = 0
 drone4in_base_1: - xk[4,1] + x[2,1,4] + x[3,1,4] + x[4,1,4] = 0
 drone4only_in_one_base_: xk[4,1] <= 1
 drone5out_base_1: - xk[5,1] + x[1,2,5] + x[1,3,5] + x[1,4,5] = 0
 drone5in_base_1: - xk[5,1] + x[2,1,5] + x[3,1,5] + x[4,1,5] = 0
 drone5only_in_one_base_: xk[5,1] <= 1
 time_1i2j1k: 1000 x[1,2,1] + s[1,1] - s[2,1] <= 915.1471862576143
 time_1i2j2k: 1000 x[1,2,2] + s[1,2] - s[2,2] <= 915.1471862576143
 time_1i2j3k: 1000 x[1,2,3] + s[1,3] - s[2,3] <= 915.1471862576143
 time_1i2j4k: 1000 x[1,2,4] + s[1,4] - s[2,4] <= 915.1471862576143
 time_1i2j5k: 1000 x[1,2,5] + s[1,5] - s[2,5] <= 915.1471862576143
 time_1i3j1k: 1000 x[1,3,1] + s[1,1] - s[3,1] <= 915.1471862576143
 time_1i3j2k: 1000 x[1,3,2] + s[1,2] - s[3,2] <= 915.1471862576143
 time_1i3j3k: 1000 x[1,3,3] + s[1,3] - s[3,3] <= 915.1471862576143
 time_1i3j4k: 1000 x[1,3,4] + s[1,4] - s[3,4] <= 915.1471862576143
 time_1i3j5k: 1000 x[1,3,5] + s[1,5] - s[3,5] <= 915.1471862576143
 time_1i4j1k: 1000 x[1,4,1] + s[1,1] - s[4,1] <= 700
 time_1i4j2k: 1000 x[1,4,2] + s[1,2] - s[4,2] <= 700
 time_1i4j3k: 1000 x[1,4,3] + s[1,3] - s[4,3] <= 700
 time_1i4j4k: 1000 x[1,4,4] + s[1,4] - s[4,4] <= 700
 time_1i4j5k: 1000 x[1,4,5] + s[1,5] - s[4,5] <= 700
 time_2i3j1k: 1000 x[2,3,1] + s[2,1] - s[3,1] <= 915.1471862576143
 time_2i3j2k: 1000 x[2,3,2] + s[2,2] - s[3,2] <= 915.1471862576143
 time_2i3j3k: 1000 x[2,3,3] + s[2,3] - s[3,3] <= 915.1471862576143
 time_2i3j4k: 1000 x[2,3,4] + s[2,4] - s[3,4] <= 915.1471862576143
 time_2i3j5k: 1000 x[2,3,5] + s[2,5] - s[3,5] <= 915.1471862576143
 time_2i4j1k: 1000 x[2,4,1] + s[2,1] - s[4,1] <= 880
 time_2i4j2k: 1000 x[2,4,2] + s[2,2] - s[4,2] <= 880
 time_2i4j3k: 1000 x[2,4,3] + s[2,3] - s[4,3] <= 880
 time_2i4j4k: 1000 x[2,4,4] + s[2,4] - s[4,4] <= 880
 time_2i4j5k: 1000 x[2,4,5] + s[2,5] - s[4,5] <= 880
 time_3i2j1k: 1000 x[3,2,1] - s[2,1] + s[3,1] <= 635.0342481821069
 time_3i2j2k: 1000 x[3,2,2] - s[2,2] + s[3,2] <= 635.0342481821069
 time_3i2j3k: 1000 x[3,2,3] - s[2,3] + s[3,3] <= 635.0342481821069
 time_3i2j4k: 1000 x[3,2,4] - s[2,4] + s[3,4] <= 635.0342481821069
 time_3i2j5k: 1000 x[3,2,5] - s[2,5] + s[3,5] <= 635.0342481821069
 time_3i4j1k: 1000 x[3,4,1] + s[3,1] - s[4,1] <= 915.1471862576143
 time_3i4j2k: 1000 x[3,4,2] + s[3,2] - s[4,2] <= 915.1471862576143
 time_3i4j3k: 1000 x[3,4,3] + s[3,3] - s[4,3] <= 915.1471862576143
 time_3i4j4k: 1000 x[3,4,4] + s[3,4] - s[4,4] <= 915.1471862576143
 time_3i4j5k: 1000 x[3,4,5] + s[3,5] - s[4,5] <= 915.1471862576143
 time_4i2j1k: 1000 x[4,2,1] - s[2,1] + s[4,1] <= 880
 time_4i2j2k: 1000 x[4,2,2] - s[2,2] + s[4,2] <= 880
 time_4i2j3k: 1000 x[4,2,3] - s[2,3] + s[4,3] <= 880
 time_4i2j4k: 1000 x[4,2,4] - s[2,4] + s[4,4] <= 880
 time_4i2j5k: 1000 x[4,2,5] - s[2,5] + s[4,5] <= 880
 time_4i3j1k: 1000 x[4,3,1] - s[3,1] + s[4,1] <= 635.0342481821069
 time_4i3j2k: 1000 x[4,3,2] - s[3,2] + s[4,2] <= 635.0342481821069
 time_4i3j3k: 1000 x[4,3,3] - s[3,3] + s[4,3] <= 635.0342481821069
 time_4i3j4k: 1000 x[4,3,4] - s[3,4] + s[4,4] <= 635.0342481821069
 time_4i3j5k: 1000 x[4,3,5] - s[3,5] + s[4,5] <= 635.0342481821069
Bounds
 s[1,1] <= 1000
 s[1,2] <= 1000
 s[1,3] <= 1000
 s[1,4] <= 1000
 s[1,5] <= 1000
 s[2,1] <= 1000
 s[2,2] <= 1000
 s[2,3] <= 1000
 s[2,4] <= 1000
 s[2,5] <= 1000
 s[3,1] <= 1000
 s[3,2] <= 1000
 s[3,3] <= 1000
 s[3,4] <= 1000
 s[3,5] <= 1000
 s[4,1] <= 1000
 s[4,2] <= 1000
 s[4,3] <= 1000
 s[4,4] <= 1000
 s[4,5] <= 1000
Binaries
 xk[1,1] x[1,2,1] x[1,3,1] x[1,4,1] x[2,1,1] x[2,3,1] x[2,4,1] x[3,1,1]
 x[3,2,1] x[3,4,1] x[4,1,1] x[4,2,1] x[4,3,1] xk[2,1] x[1,2,2] x[1,3,2]
 x[1,4,2] x[2,1,2] x[2,3,2] x[2,4,2] x[3,1,2] x[3,2,2] x[3,4,2] x[4,1,2]
 x[4,2,2] x[4,3,2] xk[3,1] x[1,2,3] x[1,3,3] x[1,4,3] x[2,1,3] x[2,3,3]
 x[2,4,3] x[3,1,3] x[3,2,3] x[3,4,3] x[4,1,3] x[4,2,3] x[4,3,3] xk[4,1]
 x[1,2,4] x[1,3,4] x[1,4,4] x[2,1,4] x[2,3,4] x[2,4,4] x[3,1,4] x[3,2,4]
 x[3,4,4] x[4,1,4] x[4,2,4] x[4,3,4] xk[5,1] x[1,2,5] x[1,3,5] x[1,4,5]
 x[2,1,5] x[2,3,5] x[2,4,5] x[3,1,5] x[3,2,5] x[3,4,5] x[4,1,5] x[4,2,5]
 x[4,3,5]
End
